1409.93
0 1 3 72 10 53 35 7 5 34 67 0
0 31 38 65 66 11 14 8 0
0 25 24 49 43 22 62 28 30 29 27 26 0
0 41 42 39 59 54 13 57 15 20 37 36 2 33 0
0 70 71 21 47 45 52 58 55 44 56 51 0
0 50 18 48 60 61 73 63 23 16 4 46 12 0
0 74 69 64 32 9 40 17 6 68 75 19 0
